nbGenes = 10;
preference = [[0 50 16 50 5 0 58 97 4 36 ]
[50 0 20 0 7 39 23 53 13 2 ]
[84 80 0 22 9 64 47 82 78 33 ]
[50 100 78 0 73 35 40 58 56 62 ]
[95 93 91 27 0 83 21 23 88 89 ]
[100 61 36 65 17 0 74 40 4 76 ]
[42 77 53 60 79 26 0 49 99 47 ]
[3 47 18 42 77 60 51 0 32 78 ]
[96 87 22 44 12 96 1 68 0 25 ]
[64 98 67 38 11 24 53 22 75 0 ]
];
